(declare-const term_to_project_onto Real)
(declare-const i Int)
(declare-const A.8 Int)
(declare-const term_to_project_onto0 Real)
(declare-const phi_A.8 Int)
(declare-const |A.8'| Int)
(declare-const havoc Int)
(declare-const |i'| Int)
(assert (and (<= (- i) 0) (<= (+ i -6) 0)
               (or (= (+ (- phi_A.8) A.8) 0) (= (+ havoc (- phi_A.8)) 0))
               (= (+ |i'| (- i) -1) 0) (= (+ |A.8'| (- phi_A.8)) 0)
               (= term_to_project_onto0 (+ |A.8'| (- A.8)))
               (= term_to_project_onto (+ |i'| (- i)))))
(check-sat)
